c WMC file for PBN EPFL/random_control/dec_distill_EPFL/random_control/dec_miter written by probABC
p cnf 603 1683
43 -1 -3 0
-43 1 0
-43 3 0
44 -2 4 0
-44 2 0
-44 -4 0
45 9 44 0
-45 -9 0
-45 -44 0
46 -9 -44 0
-46 9 0
-46 44 0
47 45 46 0
-47 -45 0
-47 -46 0
48 -43 -47 0
-48 43 0
-48 47 0
49 -7 -8 0
-49 7 0
-49 8 0
50 -18 49 0
-50 18 0
-50 -49 0
51 18 -49 0
-51 -18 0
-51 49 0
52 50 51 0
-52 -50 0
-52 -51 0
53 -5 6 0
-53 5 0
-53 -6 0
54 52 -53 0
-54 -52 0
-54 53 0
55 -48 -54 0
-55 48 0
-55 54 0
56 -43 -44 0
-56 43 0
-56 44 0
57 -49 -53 0
-57 49 0
-57 53 0
58 -56 -57 0
-58 56 0
-58 57 0
59 -55 58 0
-59 55 0
-59 -58 0
60 55 -58 0
-60 -55 0
-60 58 0
61 -5 -6 0
-61 5 0
-61 6 0
62 -15 61 0
-62 15 0
-62 -61 0
63 15 -61 0
-63 -15 0
-63 61 0
64 62 63 0
-64 -62 0
-64 -63 0
65 -7 8 0
-65 7 0
-65 -8 0
66 64 -65 0
-66 -64 0
-66 65 0
67 -48 -66 0
-67 48 0
-67 66 0
68 -61 -65 0
-68 61 0
-68 65 0
69 -56 -68 0
-69 56 0
-69 68 0
70 67 69 0
-70 -67 0
-70 -69 0
71 -67 -69 0
-71 67 0
-71 69 0
72 70 71 0
-72 -70 0
-72 -71 0
73 1 3 0
-73 -1 0
-73 -3 0
74 -47 -73 0
-74 47 0
-74 73 0
75 5 6 0
-75 -5 0
-75 -6 0
76 52 -75 0
-76 -52 0
-76 75 0
77 -74 -76 0
-77 74 0
-77 76 0
78 -44 -73 0
-78 44 0
-78 73 0
79 -49 -75 0
-79 49 0
-79 75 0
80 -78 -79 0
-80 78 0
-80 79 0
81 77 80 0
-81 -77 0
-81 -80 0
82 -77 -80 0
-82 77 0
-82 80 0
83 81 82 0
-83 -81 0
-83 -82 0
84 -66 -74 0
-84 66 0
-84 74 0
85 -68 -78 0
-85 68 0
-85 78 0
86 84 85 0
-86 -84 0
-86 -85 0
87 -84 -85 0
-87 84 0
-87 85 0
88 86 87 0
-88 -86 0
-88 -87 0
89 -15 -65 0
-89 15 0
-89 65 0
90 2 -4 0
-90 -2 0
-90 4 0
91 3 -90 0
-91 -3 0
-91 90 0
92 -2 -4 0
-92 2 0
-92 4 0
93 -73 -92 0
-93 73 0
-93 92 0
94 91 93 0
-94 -91 0
-94 -93 0
95 -3 -4 0
-95 3 0
-95 4 0
96 -94 95 0
-96 94 0
-96 -95 0
97 -89 96 0
-97 89 0
-97 -96 0
98 1 -3 0
-98 -1 0
-98 3 0
99 -9 -98 0
-99 9 0
-99 98 0
100 11 99 0
-100 -11 0
-100 -99 0
101 -9 -43 0
-101 9 0
-101 43 0
102 -100 101 0
-102 100 0
-102 -101 0
103 7 -8 0
-103 -7 0
-103 8 0
104 -53 -103 0
-104 53 0
-104 103 0
105 102 -104 0
-105 -102 0
-105 104 0
106 -65 -75 0
-106 65 0
-106 75 0
107 -9 -73 0
-107 9 0
-107 73 0
108 12 107 0
-108 -12 0
-108 -107 0
109 11 101 0
-109 -11 0
-109 -101 0
110 -108 -109 0
-110 108 0
-110 109 0
111 -106 110 0
-111 106 0
-111 -110 0
112 -75 -103 0
-112 75 0
-112 103 0
113 -100 -108 0
-113 100 0
-113 108 0
114 -112 113 0
-114 112 0
-114 -113 0
115 -53 -65 0
-115 53 0
-115 65 0
116 5 -6 0
-116 -5 0
-116 6 0
117 -65 -116 0
-117 65 0
-117 116 0
118 115 117 0
-118 -115 0
-118 -117 0
119 113 118 0
-119 -113 0
-119 -118 0
120 -18 -53 0
-120 18 0
-120 53 0
121 73 -90 0
-121 -73 0
-121 90 0
122 -1 3 0
-122 1 0
-122 -3 0
123 -92 122 0
-123 92 0
-123 -122 0
124 121 123 0
-124 -121 0
-124 -123 0
125 -120 124 0
-125 120 0
-125 -124 0
126 64 -103 0
-126 -64 0
-126 103 0
127 -74 -126 0
-127 74 0
-127 126 0
128 -61 -103 0
-128 61 0
-128 103 0
129 -78 -128 0
-129 78 0
-129 128 0
130 127 129 0
-130 -127 0
-130 -129 0
131 -127 -129 0
-131 127 0
-131 129 0
132 130 131 0
-132 -130 0
-132 -131 0
133 -48 -126 0
-133 48 0
-133 126 0
134 -56 -128 0
-134 56 0
-134 128 0
135 133 134 0
-135 -133 0
-135 -134 0
136 -133 -134 0
-136 133 0
-136 134 0
137 135 136 0
-137 -135 0
-137 -136 0
138 99 -110 0
-138 -99 0
-138 110 0
139 12 -75 0
-139 -12 0
-139 75 0
140 99 -139 0
-140 -99 0
-140 139 0
141 -109 -140 0
-141 109 0
-141 140 0
142 7 8 0
-142 -7 0
-142 -8 0
143 61 -142 0
-143 -61 0
-143 142 0
144 141 -143 0
-144 -141 0
-144 143 0
145 138 -144 0
-145 -138 0
-145 144 0
146 -92 -122 0
-146 92 0
-146 122 0
147 12 146 0
-147 -12 0
-147 -146 0
148 -12 -146 0
-148 12 0
-148 146 0
149 147 148 0
-149 -147 0
-149 -148 0
150 -66 -149 0
-150 66 0
-150 149 0
151 -68 -146 0
-151 68 0
-151 146 0
152 150 151 0
-152 -150 0
-152 -151 0
153 -150 -151 0
-153 150 0
-153 151 0
154 152 153 0
-154 -152 0
-154 -153 0
155 52 64 0
-155 -52 0
-155 -64 0
156 -49 -61 0
-156 49 0
-156 61 0
157 155 156 0
-157 -155 0
-157 -156 0
158 -51 -63 0
-158 51 0
-158 63 0
159 -43 -92 0
-159 43 0
-159 92 0
160 2 4 0
-160 -2 0
-160 -4 0
161 -122 -160 0
-161 122 0
-161 160 0
162 159 161 0
-162 -159 0
-162 -161 0
163 -94 -162 0
-163 94 0
-163 162 0
164 -43 -160 0
-164 43 0
-164 160 0
165 -73 -160 0
-165 73 0
-165 160 0
166 164 165 0
-166 -164 0
-166 -165 0
167 1 -95 0
-167 -1 0
-167 95 0
168 -166 167 0
-168 166 0
-168 -167 0
169 -163 -168 0
-169 163 0
-169 168 0
170 157 158 0
-170 -157 0
-170 -158 0
171 169 -170 0
-171 -169 0
-171 170 0
172 52 -116 0
-172 -52 0
-172 116 0
173 -98 -160 0
-173 98 0
-173 160 0
174 11 173 0
-174 -11 0
-174 -173 0
175 -11 -173 0
-175 11 0
-175 173 0
176 174 175 0
-176 -174 0
-176 -175 0
177 -172 -176 0
-177 172 0
-177 176 0
178 -49 -116 0
-178 49 0
-178 116 0
179 -173 -178 0
-179 173 0
-179 178 0
180 177 179 0
-180 -177 0
-180 -179 0
181 -177 -179 0
-181 177 0
-181 179 0
182 180 181 0
-182 -180 0
-182 -181 0
183 -76 -149 0
-183 76 0
-183 149 0
184 -79 -146 0
-184 79 0
-184 146 0
185 183 -184 0
-185 -183 0
-185 184 0
186 -183 184 0
-186 183 0
-186 -184 0
187 -54 -149 0
-187 54 0
-187 149 0
188 -57 -146 0
-188 57 0
-188 146 0
189 187 188 0
-189 -187 0
-189 -188 0
190 -187 -188 0
-190 187 0
-190 188 0
191 189 190 0
-191 -189 0
-191 -190 0
192 -47 -98 0
-192 47 0
-192 98 0
193 -155 -192 0
-193 155 0
-193 192 0
194 -44 -98 0
-194 44 0
-194 98 0
195 -156 -194 0
-195 156 0
-195 194 0
196 193 195 0
-196 -193 0
-196 -195 0
197 -193 -195 0
-197 193 0
-197 195 0
198 196 197 0
-198 -196 0
-198 -197 0
199 -74 -172 0
-199 74 0
-199 172 0
200 -78 -178 0
-200 78 0
-200 178 0
201 199 200 0
-201 -199 0
-201 -200 0
202 -199 -200 0
-202 199 0
-202 200 0
203 201 202 0
-203 -201 0
-203 -202 0
204 -76 -192 0
-204 76 0
-204 192 0
205 -79 -194 0
-205 79 0
-205 194 0
206 204 -205 0
-206 -204 0
-206 205 0
207 -48 -76 0
-207 48 0
-207 76 0
208 -56 -79 0
-208 56 0
-208 79 0
209 207 -208 0
-209 -207 0
-209 208 0
210 -149 -172 0
-210 149 0
-210 172 0
211 -146 -178 0
-211 146 0
-211 178 0
212 -210 211 0
-212 210 0
-212 -211 0
213 -48 -155 0
-213 48 0
-213 155 0
214 -56 -156 0
-214 56 0
-214 156 0
215 213 -214 0
-215 -213 0
-215 214 0
216 -103 -116 0
-216 103 0
-216 116 0
217 138 -216 0
-217 -138 0
-217 216 0
218 -126 -149 0
-218 126 0
-218 149 0
219 -128 -146 0
-219 128 0
-219 146 0
220 218 -219 0
-220 -218 0
-220 219 0
221 -66 -176 0
-221 66 0
-221 176 0
222 -68 -173 0
-222 68 0
-222 173 0
223 -221 222 0
-223 221 0
-223 -222 0
224 -172 -192 0
-224 172 0
-224 192 0
225 -178 -194 0
-225 178 0
-225 194 0
226 224 -225 0
-226 -224 0
-226 225 0
227 64 -142 0
-227 -64 0
-227 142 0
228 -32 227 0
-228 32 0
-228 -227 0
229 32 -227 0
-229 -32 0
-229 227 0
230 228 229 0
-230 -228 0
-230 -229 0
231 -74 230 0
-231 74 0
-231 -230 0
232 -61 -142 0
-232 61 0
-232 142 0
233 -78 -232 0
-233 78 0
-233 232 0
234 -231 233 0
-234 231 0
-234 -233 0
235 210 -211 0
-235 -210 0
-235 211 0
236 -213 214 0
-236 213 0
-236 -214 0
237 -224 225 0
-237 224 0
-237 -225 0
238 2 -73 0
-238 -2 0
-238 73 0
239 164 238 0
-239 -164 0
-239 -238 0
240 -120 239 0
-240 120 0
-240 -239 0
241 -18 -75 0
-241 18 0
-241 75 0
242 -159 -241 0
-242 159 0
-242 241 0
243 -18 -116 0
-243 18 0
-243 116 0
244 -161 -243 0
-244 161 0
-244 243 0
245 -120 -161 0
-245 120 0
-245 161 0
246 -15 -103 0
-246 15 0
-246 103 0
247 -159 -246 0
-247 159 0
-247 246 0
248 3 -160 0
-248 -3 0
-248 160 0
249 -241 -248 0
-249 241 0
-249 248 0
250 -43 -90 0
-250 43 0
-250 90 0
251 -92 -98 0
-251 92 0
-251 98 0
252 91 164 0
-252 -91 0
-252 -164 0
253 250 251 0
-253 -250 0
-253 -251 0
254 -252 -253 0
-254 252 0
-254 253 0
255 -241 254 0
-255 241 0
-255 -254 0
256 95 165 0
-256 -95 0
-256 -165 0
257 -243 256 0
-257 243 0
-257 -256 0
258 -75 -142 0
-258 75 0
-258 142 0
259 -107 -258 0
-259 107 0
-259 258 0
260 -101 -115 0
-260 101 0
-260 115 0
261 -89 -161 0
-261 89 0
-261 161 0
262 -246 -248 0
-262 246 0
-262 248 0
263 -101 -112 0
-263 101 0
-263 112 0
264 -89 166 0
-264 89 0
-264 -166 0
265 -104 108 0
-265 104 0
-265 -108 0
266 243 246 0
-266 -243 0
-266 -246 0
267 164 167 0
-267 -164 0
-267 -167 0
268 -246 267 0
-268 246 0
-268 -267 0
269 -94 268 0
-269 94 0
-269 -268 0
270 266 269 0
-270 -266 0
-270 -269 0
271 -54 -74 0
-271 54 0
-271 74 0
272 -57 -78 0
-272 57 0
-272 78 0
273 271 -272 0
-273 -271 0
-273 272 0
274 -218 219 0
-274 218 0
-274 -219 0
275 -126 -176 0
-275 126 0
-275 176 0
276 -128 -173 0
-276 128 0
-276 173 0
277 275 276 0
-277 -275 0
-277 -276 0
278 -275 -276 0
-278 275 0
-278 276 0
279 277 278 0
-279 -277 0
-279 -278 0
280 -204 205 0
-280 204 0
-280 -205 0
281 221 -222 0
-281 -221 0
-281 222 0
282 -66 -192 0
-282 66 0
-282 192 0
283 -68 -194 0
-283 68 0
-283 194 0
284 282 283 0
-284 -282 0
-284 -283 0
285 -282 -283 0
-285 282 0
-285 283 0
286 284 285 0
-286 -284 0
-286 -285 0
287 -207 208 0
-287 207 0
-287 -208 0
288 -271 272 0
-288 271 0
-288 -272 0
289 -54 -192 0
-289 54 0
-289 192 0
290 -57 -194 0
-290 57 0
-290 194 0
291 289 290 0
-291 -289 0
-291 -290 0
292 -289 -290 0
-292 289 0
-292 290 0
293 291 292 0
-293 -291 0
-293 -292 0
294 -192 230 0
-294 192 0
-294 -230 0
295 -194 -232 0
-295 194 0
-295 232 0
296 294 -295 0
-296 -294 0
-296 295 0
297 -294 295 0
-297 294 0
-297 -295 0
298 -126 -192 0
-298 126 0
-298 192 0
299 -128 -194 0
-299 128 0
-299 194 0
300 -16 299 0
-300 16 0
-300 -299 0
301 16 -299 0
-301 -16 0
-301 299 0
302 300 301 0
-302 -300 0
-302 -301 0
303 -298 -302 0
-303 298 0
-303 302 0
304 298 302 0
-304 -298 0
-304 -302 0
305 -176 230 0
-305 176 0
-305 -230 0
306 -173 -232 0
-306 173 0
-306 232 0
307 305 306 0
-307 -305 0
-307 -306 0
308 -305 -306 0
-308 305 0
-308 306 0
309 307 308 0
-309 -307 0
-309 -308 0
310 -155 -176 0
-310 155 0
-310 176 0
311 -27 310 0
-311 27 0
-311 -310 0
312 27 -310 0
-312 -27 0
-312 310 0
313 311 312 0
-313 -311 0
-313 -312 0
314 -156 -173 0
-314 156 0
-314 173 0
315 -313 314 0
-315 313 0
-315 -314 0
316 313 -314 0
-316 -313 0
-316 314 0
317 315 316 0
-317 -315 0
-317 -316 0
318 -47 -122 0
-318 47 0
-318 122 0
319 -10 318 0
-319 10 0
-319 -318 0
320 10 -318 0
-320 -10 0
-320 318 0
321 319 320 0
-321 -319 0
-321 -320 0
322 -44 -122 0
-322 44 0
-322 122 0
323 -321 322 0
-323 321 0
-323 -322 0
324 321 -322 0
-324 -321 0
-324 322 0
325 323 324 0
-325 -323 0
-325 -324 0
326 -6 -142 0
-326 6 0
-326 142 0
327 65 326 0
-327 -65 0
-327 -326 0
328 61 327 0
-328 -61 0
-328 -327 0
329 -325 -328 0
-329 325 0
-329 328 0
330 -155 -250 0
-330 155 0
-330 250 0
331 -29 330 0
-331 29 0
-331 -330 0
332 29 -330 0
-332 -29 0
-332 330 0
333 331 332 0
-333 -331 0
-333 -332 0
334 -156 -250 0
-334 156 0
-334 250 0
335 -333 -334 0
-335 333 0
-335 334 0
336 333 334 0
-336 -333 0
-336 -334 0
337 -74 -155 0
-337 74 0
-337 155 0
338 -78 -156 0
-338 78 0
-338 156 0
339 -26 338 0
-339 26 0
-339 -338 0
340 26 -338 0
-340 -26 0
-340 338 0
341 339 340 0
-341 -339 0
-341 -340 0
342 -337 341 0
-342 337 0
-342 -341 0
343 337 -341 0
-343 -337 0
-343 341 0
344 342 343 0
-344 -342 0
-344 -343 0
345 -76 -176 0
-345 76 0
-345 176 0
346 -19 345 0
-346 19 0
-346 -345 0
347 19 -345 0
-347 -19 0
-347 345 0
348 346 347 0
-348 -346 0
-348 -347 0
349 -79 -173 0
-349 79 0
-349 173 0
350 348 349 0
-350 -348 0
-350 -349 0
351 2 -167 0
-351 -2 0
-351 167 0
352 -76 -351 0
-352 76 0
-352 351 0
353 -21 352 0
-353 21 0
-353 -352 0
354 21 -352 0
-354 -21 0
-354 352 0
355 353 354 0
-355 -353 0
-355 -354 0
356 -79 -351 0
-356 79 0
-356 351 0
357 355 356 0
-357 -355 0
-357 -356 0
358 -126 -250 0
-358 126 0
-358 250 0
359 -17 358 0
-359 17 0
-359 -358 0
360 17 -358 0
-360 -17 0
-360 358 0
361 359 360 0
-361 -359 0
-361 -360 0
362 -128 -250 0
-362 128 0
-362 250 0
363 361 -362 0
-363 -361 0
-363 362 0
364 -361 362 0
-364 361 0
-364 -362 0
365 363 364 0
-365 -363 0
-365 -364 0
366 -172 321 0
-366 172 0
-366 -321 0
367 -178 -322 0
-367 178 0
-367 322 0
368 366 -367 0
-368 -366 0
-368 367 0
369 -126 321 0
-369 126 0
-369 -321 0
370 -128 -322 0
-370 128 0
-370 322 0
371 369 -370 0
-371 -369 0
-371 370 0
372 -149 -155 0
-372 149 0
-372 155 0
373 -28 372 0
-373 28 0
-373 -372 0
374 28 -372 0
-374 -28 0
-374 372 0
375 373 374 0
-375 -373 0
-375 -374 0
376 -146 -156 0
-376 146 0
-376 156 0
377 -375 376 0
-377 375 0
-377 -376 0
378 375 -376 0
-378 -375 0
-378 376 0
379 377 378 0
-379 -377 0
-379 -378 0
380 -369 370 0
-380 369 0
-380 -370 0
381 231 -233 0
-381 -231 0
-381 233 0
382 -155 321 0
-382 155 0
-382 -321 0
383 -156 -322 0
-383 156 0
-383 322 0
384 382 383 0
-384 -382 0
-384 -383 0
385 -382 -383 0
-385 382 0
-385 383 0
386 384 385 0
-386 -384 0
-386 -385 0
387 230 321 0
-387 -230 0
-387 -321 0
388 -232 -322 0
-388 232 0
-388 322 0
389 387 -388 0
-389 -387 0
-389 388 0
390 -387 388 0
-390 387 0
-390 -388 0
391 -48 -172 0
-391 48 0
-391 172 0
392 -25 391 0
-392 25 0
-392 -391 0
393 25 -391 0
-393 -25 0
-393 391 0
394 392 393 0
-394 -392 0
-394 -393 0
395 -56 -178 0
-395 56 0
-395 178 0
396 394 -395 0
-396 -394 0
-396 395 0
397 -394 395 0
-397 394 0
-397 -395 0
398 396 397 0
-398 -396 0
-398 -397 0
399 -66 321 0
-399 66 0
-399 -321 0
400 -68 -322 0
-400 68 0
-400 322 0
401 -399 400 0
-401 399 0
-401 -400 0
402 -355 -356 0
-402 355 0
-402 356 0
403 -366 367 0
-403 366 0
-403 -367 0
404 399 -400 0
-404 -399 0
-404 400 0
405 -348 -349 0
-405 348 0
-405 349 0
406 -149 230 0
-406 149 0
-406 -230 0
407 -146 -232 0
-407 146 0
-407 232 0
408 406 407 0
-408 -406 0
-408 -407 0
409 -406 -407 0
-409 406 0
-409 407 0
410 408 409 0
-410 -408 0
-410 -409 0
411 230 -351 0
-411 -230 0
-411 351 0
412 -33 411 0
-412 33 0
-412 -411 0
413 33 -411 0
-413 -33 0
-413 411 0
414 412 413 0
-414 -412 0
-414 -413 0
415 -232 -351 0
-415 232 0
-415 351 0
416 -414 415 0
-416 414 0
-416 -415 0
417 414 -415 0
-417 -414 0
-417 415 0
418 416 417 0
-418 -416 0
-418 -417 0
419 -164 -172 0
-419 164 0
-419 172 0
420 -24 419 0
-420 24 0
-420 -419 0
421 24 -419 0
-421 -24 0
-421 419 0
422 420 421 0
-422 -420 0
-422 -421 0
423 -164 -178 0
-423 164 0
-423 178 0
424 -422 -423 0
-424 422 0
-424 423 0
425 422 423 0
-425 -422 0
-425 -423 0
426 -48 -117 0
-426 48 0
-426 117 0
427 -56 -117 0
-427 56 0
-427 117 0
428 -40 427 0
-428 40 0
-428 -427 0
429 40 -427 0
-429 -40 0
-429 427 0
430 428 429 0
-430 -428 0
-430 -429 0
431 -426 -430 0
-431 426 0
-431 430 0
432 426 430 0
-432 -426 0
-432 -430 0
433 -48 230 0
-433 48 0
-433 -230 0
434 -56 -232 0
-434 56 0
-434 232 0
435 433 -434 0
-435 -433 0
-435 434 0
436 -433 434 0
-436 433 0
-436 -434 0
437 -106 -192 0
-437 106 0
-437 192 0
438 -106 -194 0
-438 106 0
-438 194 0
439 -36 438 0
-439 36 0
-439 -438 0
440 36 -438 0
-440 -36 0
-440 438 0
441 439 440 0
-441 -439 0
-441 -440 0
442 -437 441 0
-442 437 0
-442 -441 0
443 437 -441 0
-443 -437 0
-443 441 0
444 442 443 0
-444 -442 0
-444 -443 0
445 -216 -325 0
-445 216 0
-445 325 0
446 14 445 0
-446 -14 0
-446 -445 0
447 -14 -445 0
-447 14 0
-447 445 0
448 446 447 0
-448 -446 0
-448 -447 0
449 -76 321 0
-449 76 0
-449 -321 0
450 -79 -322 0
-450 79 0
-450 322 0
451 449 -450 0
-451 -449 0
-451 450 0
452 -449 450 0
-452 449 0
-452 -450 0
453 -76 -93 0
-453 76 0
-453 93 0
454 -79 -93 0
-454 79 0
-454 93 0
455 -20 454 0
-455 20 0
-455 -454 0
456 20 -454 0
-456 -20 0
-456 454 0
457 455 456 0
-457 -455 0
-457 -456 0
458 -453 -457 0
-458 453 0
-458 457 0
459 453 457 0
-459 -453 0
-459 -457 0
460 -230 232 0
-460 230 0
-460 -232 0
461 230 -232 0
-461 -230 0
-461 232 0
462 460 461 0
-462 -460 0
-462 -461 0
463 -163 -166 0
-463 163 0
-463 166 0
464 -462 463 0
-464 462 0
-464 -463 0
465 -54 -176 0
-465 54 0
-465 176 0
466 -57 -173 0
-466 57 0
-466 173 0
467 -23 466 0
-467 23 0
-467 -466 0
468 23 -466 0
-468 -23 0
-468 466 0
469 467 468 0
-469 -467 0
-469 -468 0
470 -465 469 0
-470 465 0
-470 -469 0
471 465 -469 0
-471 -465 0
-471 469 0
472 470 471 0
-472 -470 0
-472 -471 0
473 6 7 0
-473 -6 0
-473 -7 0
474 -325 -473 0
-474 325 0
-474 473 0
475 -250 -462 0
-475 250 0
-475 462 0
476 34 -475 0
-476 -34 0
-476 475 0
477 -34 475 0
-477 34 0
-477 -475 0
478 -251 -462 0
-478 251 0
-478 462 0
479 35 -478 0
-479 -35 0
-479 478 0
480 -35 478 0
-480 35 0
-480 -478 0
481 -54 321 0
-481 54 0
-481 -321 0
482 -57 -322 0
-482 57 0
-482 322 0
483 -22 482 0
-483 22 0
-483 -482 0
484 22 -482 0
-484 -22 0
-484 482 0
485 483 484 0
-485 -483 0
-485 -484 0
486 -481 485 0
-486 481 0
-486 -485 0
487 481 -485 0
-487 -481 0
-487 485 0
488 486 487 0
-488 -486 0
-488 -487 0
489 13 30 0
-489 -13 0
-489 -30 0
490 31 37 0
-490 -31 0
-490 -37 0
491 38 39 0
-491 -38 0
-491 -39 0
492 41 -491 0
-492 -41 0
-492 491 0
493 -489 -490 0
-493 489 0
-493 490 0
494 -492 -493 0
-494 492 0
-494 493 0
495 242 -494 0
-495 -242 0
-495 494 0
496 244 245 0
-496 -244 0
-496 -245 0
497 247 249 0
-497 -247 0
-497 -249 0
498 259 260 0
-498 -259 0
-498 -260 0
499 261 262 0
-499 -261 0
-499 -262 0
500 263 -499 0
-500 -263 0
-500 499 0
501 -497 -498 0
-501 497 0
-501 498 0
502 -495 -496 0
-502 495 0
-502 496 0
503 125 240 0
-503 -125 0
-503 -240 0
504 257 264 0
-504 -257 0
-504 -264 0
505 265 -504 0
-505 -265 0
-505 504 0
506 -502 -503 0
-506 502 0
-506 503 0
507 -500 -501 0
-507 500 0
-507 501 0
508 97 105 0
-508 -97 0
-508 -105 0
509 111 114 0
-509 -111 0
-509 -114 0
510 119 255 0
-510 -119 0
-510 -255 0
511 -509 -510 0
-511 509 0
-511 510 0
512 -507 -508 0
-512 507 0
-512 508 0
513 -505 -506 0
-513 505 0
-513 506 0
514 59 60 0
-514 -59 0
-514 -60 0
515 145 185 0
-515 -145 0
-515 -185 0
516 186 206 0
-516 -186 0
-516 -206 0
517 209 212 0
-517 -209 0
-517 -212 0
518 215 217 0
-518 -215 0
-518 -217 0
519 220 223 0
-519 -220 0
-519 -223 0
520 226 235 0
-520 -226 0
-520 -235 0
521 236 237 0
-521 -236 0
-521 -237 0
522 270 273 0
-522 -270 0
-522 -273 0
523 274 280 0
-523 -274 0
-523 -280 0
524 281 287 0
-524 -281 0
-524 -287 0
525 288 303 0
-525 -288 0
-525 -303 0
526 304 431 0
-526 -304 0
-526 -431 0
527 432 458 0
-527 -432 0
-527 -458 0
528 459 -527 0
-528 -459 0
-528 527 0
529 -525 -526 0
-529 525 0
-529 526 0
530 -523 -524 0
-530 523 0
-530 524 0
531 -521 -522 0
-531 521 0
-531 522 0
532 -519 -520 0
-532 519 0
-532 520 0
533 -517 -518 0
-533 517 0
-533 518 0
534 -515 -516 0
-534 515 0
-534 516 0
535 -513 -514 0
-535 513 0
-535 514 0
536 -511 -512 0
-536 511 0
-536 512 0
537 72 83 0
-537 -72 0
-537 -83 0
538 88 132 0
-538 -88 0
-538 -132 0
539 137 154 0
-539 -137 0
-539 -154 0
540 171 182 0
-540 -171 0
-540 -182 0
541 191 198 0
-541 -191 0
-541 -198 0
542 203 279 0
-542 -203 0
-542 -279 0
543 286 293 0
-543 -286 0
-543 -293 0
544 344 444 0
-544 -344 0
-544 -444 0
545 472 -544 0
-545 -472 0
-545 544 0
546 -542 -543 0
-546 542 0
-546 543 0
547 -540 -541 0
-547 540 0
-547 541 0
548 -538 -539 0
-548 538 0
-548 539 0
549 -536 -537 0
-549 536 0
-549 537 0
550 -534 -535 0
-550 534 0
-550 535 0
551 -532 -533 0
-551 532 0
-551 533 0
552 -530 -531 0
-552 530 0
-552 531 0
553 -528 -529 0
-553 528 0
-553 529 0
554 234 296 0
-554 -234 0
-554 -296 0
555 297 335 0
-555 -297 0
-555 -335 0
556 336 350 0
-556 -336 0
-556 -350 0
557 357 368 0
-557 -357 0
-557 -368 0
558 371 380 0
-558 -371 0
-558 -380 0
559 381 389 0
-559 -381 0
-559 -389 0
560 390 401 0
-560 -390 0
-560 -401 0
561 402 403 0
-561 -402 0
-561 -403 0
562 404 405 0
-562 -404 0
-562 -405 0
563 424 425 0
-563 -424 0
-563 -425 0
564 435 436 0
-564 -435 0
-564 -436 0
565 451 452 0
-565 -451 0
-565 -452 0
566 -564 -565 0
-566 564 0
-566 565 0
567 -562 -563 0
-567 562 0
-567 563 0
568 -560 -561 0
-568 560 0
-568 561 0
569 -558 -559 0
-569 558 0
-569 559 0
570 -556 -557 0
-570 556 0
-570 557 0
571 -554 -555 0
-571 554 0
-571 555 0
572 -552 -553 0
-572 552 0
-572 553 0
573 -550 -551 0
-573 550 0
-573 551 0
574 -548 -549 0
-574 548 0
-574 549 0
575 -546 -547 0
-575 546 0
-575 547 0
576 309 -545 0
-576 -309 0
-576 545 0
577 317 329 0
-577 -317 0
-577 -329 0
578 365 379 0
-578 -365 0
-578 -379 0
579 386 398 0
-579 -386 0
-579 -398 0
580 410 464 0
-580 -410 0
-580 -464 0
581 474 488 0
-581 -474 0
-581 -488 0
582 -580 -581 0
-582 580 0
-582 581 0
583 -578 -579 0
-583 578 0
-583 579 0
584 -576 -577 0
-584 576 0
-584 577 0
585 -574 -575 0
-585 574 0
-585 575 0
586 -572 -573 0
-586 572 0
-586 573 0
587 -570 -571 0
-587 570 0
-587 571 0
588 -568 -569 0
-588 568 0
-588 569 0
589 -566 -567 0
-589 566 0
-589 567 0
590 476 477 0
-590 -476 0
-590 -477 0
591 479 480 0
-591 -479 0
-591 -480 0
592 -590 -591 0
-592 590 0
-592 591 0
593 -588 -589 0
-593 588 0
-593 589 0
594 -586 -587 0
-594 586 0
-594 587 0
595 -584 -585 0
-595 584 0
-595 585 0
596 -582 -583 0
-596 582 0
-596 583 0
597 418 448 0
-597 -418 0
-597 -448 0
598 -596 -597 0
-598 596 0
-598 597 0
599 -594 -595 0
-599 594 0
-599 595 0
600 -592 -593 0
-600 592 0
-600 593 0
601 -599 -600 0
-601 599 0
-601 600 0
602 -598 -601 0
-602 598 0
-602 601 0
42 602 0
-42 -602 0
42 0
w 1 0.500000
w 2 0.500000
w 3 0.500000
w 4 0.500000
w 5 0.500000
w 6 0.500000
w 7 0.500000
w 8 0.500000
w 9 0.125000
w 10 0.125000
w 11 0.125000
w 12 0.125000
w 13 0.125000
w 14 0.125000
w 15 0.125000
w 16 0.125000
w 17 0.125000
w 18 0.125000
w 19 0.125000
w 20 0.125000
w 21 0.125000
w 22 0.125000
w 23 0.125000
w 24 0.125000
w 25 0.125000
w 26 0.125000
w 27 0.125000
w 28 0.125000
w 29 0.125000
w 30 0.125000
w 31 0.125000
w 32 0.125000
w 33 0.125000
w 34 0.125000
w 35 0.125000
w 36 0.125000
w 37 0.125000
w 38 0.125000
w 39 0.125000
w 40 0.125000
w 41 0.125000
w 43 -1
w 44 -1
w 45 -1
w 46 -1
w 47 -1
w 48 -1
w 49 -1
w 50 -1
w 51 -1
w 52 -1
w 53 -1
w 54 -1
w 55 -1
w 56 -1
w 57 -1
w 58 -1
w 59 -1
w 60 -1
w 61 -1
w 62 -1
w 63 -1
w 64 -1
w 65 -1
w 66 -1
w 67 -1
w 68 -1
w 69 -1
w 70 -1
w 71 -1
w 72 -1
w 73 -1
w 74 -1
w 75 -1
w 76 -1
w 77 -1
w 78 -1
w 79 -1
w 80 -1
w 81 -1
w 82 -1
w 83 -1
w 84 -1
w 85 -1
w 86 -1
w 87 -1
w 88 -1
w 89 -1
w 90 -1
w 91 -1
w 92 -1
w 93 -1
w 94 -1
w 95 -1
w 96 -1
w 97 -1
w 98 -1
w 99 -1
w 100 -1
w 101 -1
w 102 -1
w 103 -1
w 104 -1
w 105 -1
w 106 -1
w 107 -1
w 108 -1
w 109 -1
w 110 -1
w 111 -1
w 112 -1
w 113 -1
w 114 -1
w 115 -1
w 116 -1
w 117 -1
w 118 -1
w 119 -1
w 120 -1
w 121 -1
w 122 -1
w 123 -1
w 124 -1
w 125 -1
w 126 -1
w 127 -1
w 128 -1
w 129 -1
w 130 -1
w 131 -1
w 132 -1
w 133 -1
w 134 -1
w 135 -1
w 136 -1
w 137 -1
w 138 -1
w 139 -1
w 140 -1
w 141 -1
w 142 -1
w 143 -1
w 144 -1
w 145 -1
w 146 -1
w 147 -1
w 148 -1
w 149 -1
w 150 -1
w 151 -1
w 152 -1
w 153 -1
w 154 -1
w 155 -1
w 156 -1
w 157 -1
w 158 -1
w 159 -1
w 160 -1
w 161 -1
w 162 -1
w 163 -1
w 164 -1
w 165 -1
w 166 -1
w 167 -1
w 168 -1
w 169 -1
w 170 -1
w 171 -1
w 172 -1
w 173 -1
w 174 -1
w 175 -1
w 176 -1
w 177 -1
w 178 -1
w 179 -1
w 180 -1
w 181 -1
w 182 -1
w 183 -1
w 184 -1
w 185 -1
w 186 -1
w 187 -1
w 188 -1
w 189 -1
w 190 -1
w 191 -1
w 192 -1
w 193 -1
w 194 -1
w 195 -1
w 196 -1
w 197 -1
w 198 -1
w 199 -1
w 200 -1
w 201 -1
w 202 -1
w 203 -1
w 204 -1
w 205 -1
w 206 -1
w 207 -1
w 208 -1
w 209 -1
w 210 -1
w 211 -1
w 212 -1
w 213 -1
w 214 -1
w 215 -1
w 216 -1
w 217 -1
w 218 -1
w 219 -1
w 220 -1
w 221 -1
w 222 -1
w 223 -1
w 224 -1
w 225 -1
w 226 -1
w 227 -1
w 228 -1
w 229 -1
w 230 -1
w 231 -1
w 232 -1
w 233 -1
w 234 -1
w 235 -1
w 236 -1
w 237 -1
w 238 -1
w 239 -1
w 240 -1
w 241 -1
w 242 -1
w 243 -1
w 244 -1
w 245 -1
w 246 -1
w 247 -1
w 248 -1
w 249 -1
w 250 -1
w 251 -1
w 252 -1
w 253 -1
w 254 -1
w 255 -1
w 256 -1
w 257 -1
w 258 -1
w 259 -1
w 260 -1
w 261 -1
w 262 -1
w 263 -1
w 264 -1
w 265 -1
w 266 -1
w 267 -1
w 268 -1
w 269 -1
w 270 -1
w 271 -1
w 272 -1
w 273 -1
w 274 -1
w 275 -1
w 276 -1
w 277 -1
w 278 -1
w 279 -1
w 280 -1
w 281 -1
w 282 -1
w 283 -1
w 284 -1
w 285 -1
w 286 -1
w 287 -1
w 288 -1
w 289 -1
w 290 -1
w 291 -1
w 292 -1
w 293 -1
w 294 -1
w 295 -1
w 296 -1
w 297 -1
w 298 -1
w 299 -1
w 300 -1
w 301 -1
w 302 -1
w 303 -1
w 304 -1
w 305 -1
w 306 -1
w 307 -1
w 308 -1
w 309 -1
w 310 -1
w 311 -1
w 312 -1
w 313 -1
w 314 -1
w 315 -1
w 316 -1
w 317 -1
w 318 -1
w 319 -1
w 320 -1
w 321 -1
w 322 -1
w 323 -1
w 324 -1
w 325 -1
w 326 -1
w 327 -1
w 328 -1
w 329 -1
w 330 -1
w 331 -1
w 332 -1
w 333 -1
w 334 -1
w 335 -1
w 336 -1
w 337 -1
w 338 -1
w 339 -1
w 340 -1
w 341 -1
w 342 -1
w 343 -1
w 344 -1
w 345 -1
w 346 -1
w 347 -1
w 348 -1
w 349 -1
w 350 -1
w 351 -1
w 352 -1
w 353 -1
w 354 -1
w 355 -1
w 356 -1
w 357 -1
w 358 -1
w 359 -1
w 360 -1
w 361 -1
w 362 -1
w 363 -1
w 364 -1
w 365 -1
w 366 -1
w 367 -1
w 368 -1
w 369 -1
w 370 -1
w 371 -1
w 372 -1
w 373 -1
w 374 -1
w 375 -1
w 376 -1
w 377 -1
w 378 -1
w 379 -1
w 380 -1
w 381 -1
w 382 -1
w 383 -1
w 384 -1
w 385 -1
w 386 -1
w 387 -1
w 388 -1
w 389 -1
w 390 -1
w 391 -1
w 392 -1
w 393 -1
w 394 -1
w 395 -1
w 396 -1
w 397 -1
w 398 -1
w 399 -1
w 400 -1
w 401 -1
w 402 -1
w 403 -1
w 404 -1
w 405 -1
w 406 -1
w 407 -1
w 408 -1
w 409 -1
w 410 -1
w 411 -1
w 412 -1
w 413 -1
w 414 -1
w 415 -1
w 416 -1
w 417 -1
w 418 -1
w 419 -1
w 420 -1
w 421 -1
w 422 -1
w 423 -1
w 424 -1
w 425 -1
w 426 -1
w 427 -1
w 428 -1
w 429 -1
w 430 -1
w 431 -1
w 432 -1
w 433 -1
w 434 -1
w 435 -1
w 436 -1
w 437 -1
w 438 -1
w 439 -1
w 440 -1
w 441 -1
w 442 -1
w 443 -1
w 444 -1
w 445 -1
w 446 -1
w 447 -1
w 448 -1
w 449 -1
w 450 -1
w 451 -1
w 452 -1
w 453 -1
w 454 -1
w 455 -1
w 456 -1
w 457 -1
w 458 -1
w 459 -1
w 460 -1
w 461 -1
w 462 -1
w 463 -1
w 464 -1
w 465 -1
w 466 -1
w 467 -1
w 468 -1
w 469 -1
w 470 -1
w 471 -1
w 472 -1
w 473 -1
w 474 -1
w 475 -1
w 476 -1
w 477 -1
w 478 -1
w 479 -1
w 480 -1
w 481 -1
w 482 -1
w 483 -1
w 484 -1
w 485 -1
w 486 -1
w 487 -1
w 488 -1
w 489 -1
w 490 -1
w 491 -1
w 492 -1
w 493 -1
w 494 -1
w 495 -1
w 496 -1
w 497 -1
w 498 -1
w 499 -1
w 500 -1
w 501 -1
w 502 -1
w 503 -1
w 504 -1
w 505 -1
w 506 -1
w 507 -1
w 508 -1
w 509 -1
w 510 -1
w 511 -1
w 512 -1
w 513 -1
w 514 -1
w 515 -1
w 516 -1
w 517 -1
w 518 -1
w 519 -1
w 520 -1
w 521 -1
w 522 -1
w 523 -1
w 524 -1
w 525 -1
w 526 -1
w 527 -1
w 528 -1
w 529 -1
w 530 -1
w 531 -1
w 532 -1
w 533 -1
w 534 -1
w 535 -1
w 536 -1
w 537 -1
w 538 -1
w 539 -1
w 540 -1
w 541 -1
w 542 -1
w 543 -1
w 544 -1
w 545 -1
w 546 -1
w 547 -1
w 548 -1
w 549 -1
w 550 -1
w 551 -1
w 552 -1
w 553 -1
w 554 -1
w 555 -1
w 556 -1
w 557 -1
w 558 -1
w 559 -1
w 560 -1
w 561 -1
w 562 -1
w 563 -1
w 564 -1
w 565 -1
w 566 -1
w 567 -1
w 568 -1
w 569 -1
w 570 -1
w 571 -1
w 572 -1
w 573 -1
w 574 -1
w 575 -1
w 576 -1
w 577 -1
w 578 -1
w 579 -1
w 580 -1
w 581 -1
w 582 -1
w 583 -1
w 584 -1
w 585 -1
w 586 -1
w 587 -1
w 588 -1
w 589 -1
w 590 -1
w 591 -1
w 592 -1
w 593 -1
w 594 -1
w 595 -1
w 596 -1
w 597 -1
w 598 -1
w 599 -1
w 600 -1
w 601 -1
w 602 -1
w 42 -1
